* Generated by MPModelProtoExporter
*   Name             : 
*   Format           : Free
*   Constraints      : 68
*   Variables        : 68
*     Binary         : 0
*     Integer        : 0
*     Continuous     : 68
NAME          
ROWS
 N  COST
 G  auto_c_000000000
 G  auto_c_000000001
 G  auto_c_000000002
 G  auto_c_000000003
 G  auto_c_000000004
 G  auto_c_000000005
 G  auto_c_000000006
 G  auto_c_000000007
 G  auto_c_000000008
 G  auto_c_000000009
 G  auto_c_000000010
 G  auto_c_000000011
 G  auto_c_000000012
 G  auto_c_000000013
 G  auto_c_000000014
 G  auto_c_000000015
 G  auto_c_000000016
 G  auto_c_000000017
 G  auto_c_000000018
 G  auto_c_000000019
 G  auto_c_000000020
 G  auto_c_000000021
 G  auto_c_000000022
 G  auto_c_000000023
 G  auto_c_000000024
 G  auto_c_000000025
 G  auto_c_000000026
 G  auto_c_000000027
 G  auto_c_000000028
 G  auto_c_000000029
 G  auto_c_000000030
 G  auto_c_000000031
 G  auto_c_000000032
 G  auto_c_000000033
 G  auto_c_000000034
 G  auto_c_000000035
 G  auto_c_000000036
 G  auto_c_000000037
 G  auto_c_000000038
 G  auto_c_000000039
 G  auto_c_000000040
 G  auto_c_000000041
 G  auto_c_000000042
 G  auto_c_000000043
 G  auto_c_000000044
 G  auto_c_000000045
 G  auto_c_000000046
 G  auto_c_000000047
 G  auto_c_000000048
 G  auto_c_000000049
 G  auto_c_000000050
 G  auto_c_000000051
 G  auto_c_000000052
 G  auto_c_000000053
 G  auto_c_000000054
 G  auto_c_000000055
 G  auto_c_000000056
 G  auto_c_000000057
 G  auto_c_000000058
 G  auto_c_000000059
 G  auto_c_000000060
 G  auto_c_000000061
 G  auto_c_000000062
 G  auto_c_000000063
 G  auto_c_000000064
 G  auto_c_000000065
 G  auto_c_000000066
 G  auto_c_000000067
COLUMNS
    auto_v_000000000  COST                   1  auto_c_000000000       2
    auto_v_000000001  COST                   1  auto_c_000000001       1
    auto_v_000000002  COST                   1  auto_c_000000002       1
    auto_v_000000003  COST                   1  auto_c_000000003       1
    auto_v_000000004  COST                   1  auto_c_000000004       1
    auto_v_000000005  COST                   1  auto_c_000000005       1
    auto_v_000000006  COST                   1  auto_c_000000006       1
    auto_v_000000007  COST                   1  auto_c_000000007       1
    auto_v_000000008  COST                   1  auto_c_000000008       1
    auto_v_000000009  COST                   1  auto_c_000000009       1
    auto_v_000000010  COST                   1  auto_c_000000010       1
    auto_v_000000011  COST                   1  auto_c_000000011       1
    auto_v_000000012  COST                   1  auto_c_000000012       1
    auto_v_000000013  COST                   1  auto_c_000000013       1
    auto_v_000000014  COST                   1  auto_c_000000014       1
    auto_v_000000015  COST                   1  auto_c_000000015       1
    auto_v_000000016  COST                   1  auto_c_000000016       1
    auto_v_000000017  COST                   1  auto_c_000000017       1
    auto_v_000000018  COST                   1  auto_c_000000018       1
    auto_v_000000019  COST                   1  auto_c_000000019       1
    auto_v_000000020  COST                   1  auto_c_000000020       1
    auto_v_000000021  COST                   1  auto_c_000000021       1
    auto_v_000000022  COST                   1  auto_c_000000022       1
    auto_v_000000023  COST                   1  auto_c_000000023       1
    auto_v_000000024  COST                   1  auto_c_000000024       1
    auto_v_000000025  COST                   1  auto_c_000000025       1
    auto_v_000000026  COST                   1  auto_c_000000026       1
    auto_v_000000027  COST                   1  auto_c_000000027       1
    auto_v_000000028  COST                   1  auto_c_000000028       1
    auto_v_000000029  COST                   1  auto_c_000000029       1
    auto_v_000000030  COST                   1  auto_c_000000030       1
    auto_v_000000031  COST                   1  auto_c_000000031       1
    auto_v_000000032  COST                   1  auto_c_000000032       1
    auto_v_000000033  COST                   1  auto_c_000000033       1
    auto_v_000000034  COST                   1  auto_c_000000034       1
    auto_v_000000035  COST                   1  auto_c_000000035       1
    auto_v_000000036  COST                   1  auto_c_000000036       1
    auto_v_000000037  COST                   1  auto_c_000000037       1
    auto_v_000000038  COST                   1  auto_c_000000038       1
    auto_v_000000039  COST                   1  auto_c_000000039       1
    auto_v_000000040  COST                   1  auto_c_000000040       1
    auto_v_000000041  COST                   1  auto_c_000000041       1
    auto_v_000000042  COST                   1  auto_c_000000042       1
    auto_v_000000043  COST                   1  auto_c_000000043       1
    auto_v_000000044  COST                   1  auto_c_000000044       1
    auto_v_000000045  COST                   1  auto_c_000000045       1
    auto_v_000000046  COST                   1  auto_c_000000046       1
    auto_v_000000047  COST                   1  auto_c_000000047       1
    auto_v_000000048  COST                   1  auto_c_000000048       1
    auto_v_000000049  COST                   1  auto_c_000000049       1
    auto_v_000000050  COST                   1  auto_c_000000050       1
    auto_v_000000051  COST                   1  auto_c_000000051       1
    auto_v_000000052  COST                   1  auto_c_000000052       1
    auto_v_000000053  COST                   1
    auto_v_000000054  COST                   1
    auto_v_000000055  COST                   1
    auto_v_000000056  COST                   1
    auto_v_000000057  COST                   1
    auto_v_000000058  COST                   1
    auto_v_000000059  COST                   1
    auto_v_000000060  COST                   1
    auto_v_000000061  COST                   1
    auto_v_000000062  COST                   1
    auto_v_000000063  COST                   1
    auto_v_000000064  COST                   1
    auto_v_000000065  COST                   1
    auto_v_000000066  COST                   1
    auto_v_000000067  COST                   1
RHS
    RHS               auto_c_000000000      16  auto_c_000000001       4
    RHS               auto_c_000000002       4  auto_c_000000003      12
    RHS               auto_c_000000004      81  auto_c_000000005      30
    RHS               auto_c_000000006      41  auto_c_000000007      20
    RHS               auto_c_000000008      56  auto_c_000000009      26
    RHS               auto_c_000000010      15  auto_c_000000011      43
    RHS               auto_c_000000012       4  auto_c_000000013      16
    RHS               auto_c_000000014      40  auto_c_000000015       6
    RHS               auto_c_000000016       9  auto_c_000000017       4
    RHS               auto_c_000000018       3  auto_c_000000019       3
    RHS               auto_c_000000020       4  auto_c_000000021      10
    RHS               auto_c_000000022      30  auto_c_000000023      17
    RHS               auto_c_000000024       4  auto_c_000000025      16
    RHS               auto_c_000000026      33  auto_c_000000027      16
    RHS               auto_c_000000028      20  auto_c_000000029      25
    RHS               auto_c_000000030      20  auto_c_000000031      20
    RHS               auto_c_000000032      20  auto_c_000000033      16
    RHS               auto_c_000000034      27  auto_c_000000035      31
    RHS               auto_c_000000036      11  auto_c_000000037       4
    RHS               auto_c_000000038      10  auto_c_000000039      28
    RHS               auto_c_000000040      10  auto_c_000000041      18
    RHS               auto_c_000000042      41  auto_c_000000043      25
    RHS               auto_c_000000044      40  auto_c_000000045      20
    RHS               auto_c_000000046       4  auto_c_000000047      24
    RHS               auto_c_000000048      10  auto_c_000000049      15
    RHS               auto_c_000000050      10  auto_c_000000051      20
    RHS               auto_c_000000052       8  auto_c_000000053      31
    RHS               auto_c_000000054       5  auto_c_000000055      13
    RHS               auto_c_000000056       4  auto_c_000000057      13
    RHS               auto_c_000000058      10  auto_c_000000059      10
    RHS               auto_c_000000060      13  auto_c_000000061      13
    RHS               auto_c_000000062      10  auto_c_000000063      33
    RHS               auto_c_000000064       4  auto_c_000000065      18
    RHS               auto_c_000000066      20  auto_c_000000067      20
BOUNDS
 PL BOUND             auto_v_000000000
 PL BOUND             auto_v_000000001
 PL BOUND             auto_v_000000002
 PL BOUND             auto_v_000000003
 PL BOUND             auto_v_000000004
 PL BOUND             auto_v_000000005
 PL BOUND             auto_v_000000006
 PL BOUND             auto_v_000000007
 PL BOUND             auto_v_000000008
 PL BOUND             auto_v_000000009
 PL BOUND             auto_v_000000010
 PL BOUND             auto_v_000000011
 PL BOUND             auto_v_000000012
 PL BOUND             auto_v_000000013
 PL BOUND             auto_v_000000014
 PL BOUND             auto_v_000000015
 PL BOUND             auto_v_000000016
 PL BOUND             auto_v_000000017
 PL BOUND             auto_v_000000018
 PL BOUND             auto_v_000000019
 PL BOUND             auto_v_000000020
 PL BOUND             auto_v_000000021
 PL BOUND             auto_v_000000022
 PL BOUND             auto_v_000000023
 PL BOUND             auto_v_000000024
 PL BOUND             auto_v_000000025
 PL BOUND             auto_v_000000026
 PL BOUND             auto_v_000000027
 PL BOUND             auto_v_000000028
 PL BOUND             auto_v_000000029
 PL BOUND             auto_v_000000030
 PL BOUND             auto_v_000000031
 PL BOUND             auto_v_000000032
 PL BOUND             auto_v_000000033
 PL BOUND             auto_v_000000034
 PL BOUND             auto_v_000000035
 PL BOUND             auto_v_000000036
 PL BOUND             auto_v_000000037
 PL BOUND             auto_v_000000038
 PL BOUND             auto_v_000000039
 PL BOUND             auto_v_000000040
 PL BOUND             auto_v_000000041
 PL BOUND             auto_v_000000042
 PL BOUND             auto_v_000000043
 PL BOUND             auto_v_000000044
 PL BOUND             auto_v_000000045
 PL BOUND             auto_v_000000046
 PL BOUND             auto_v_000000047
 PL BOUND             auto_v_000000048
 PL BOUND             auto_v_000000049
 PL BOUND             auto_v_000000050
 PL BOUND             auto_v_000000051
 PL BOUND             auto_v_000000052
 PL BOUND             auto_v_000000053
 PL BOUND             auto_v_000000054
 PL BOUND             auto_v_000000055
 PL BOUND             auto_v_000000056
 PL BOUND             auto_v_000000057
 PL BOUND             auto_v_000000058
 PL BOUND             auto_v_000000059
 PL BOUND             auto_v_000000060
 PL BOUND             auto_v_000000061
 PL BOUND             auto_v_000000062
 PL BOUND             auto_v_000000063
 PL BOUND             auto_v_000000064
 PL BOUND             auto_v_000000065
 PL BOUND             auto_v_000000066
 PL BOUND             auto_v_000000067
ENDATA
